NAME : coverage_path
TYPE : ATSP
DIMENSION : 7
EDGE_WEIGHT_TYPE : EXPLICIT
EDGE_WEIGHT_FORMAT : FULL_MATRIX
EDGE_WEIGHT_SECTION
0 114 2293 5370 3120 2883 3403 
0 0 627 1374 657 341 476 
0 627 0 100000 338 151 280 
0 1374 100000 0 200000 200000 140000 
0 657 338 200000 0 170 214 
0 341 151 200000 170 0 182 
0 476 280 140000 214 182 0 
EOF